17	4
14	28	20	16	
0	0	0	0	0	3	2	3	4	
10	0	8	0	0	3	9	14	17	
3	0	0	0	3	3	6	11	17	
7	0	0	0	5	3	5	7	10	
5	0	0	0	7	2	17	17	
125	0	0	0	7	3	8	15	17	
250	2	0	0	0	1	17	
125	3	0	0	0	3	12	13	17	
225	0	0	6	0	3	13	15	16	
100	0	0	0	2	3	17	17	17	
175	9	0	0	0	2	17	17	
250	2	0	0	0	2	17	17	
7	0	10	0	0	2	17	17	
8	0	7	0	0	3	17	17	17	
10	0	5	0	0	2	17	17	
5	0	9	0	0	3	17	17	17	
0	0	0	0	0	0	
